objective value:                                   81
b80_811                                             1 	(obj:1)
b79_682                                             1 	(obj:1)
b78_202                                             1 	(obj:1)
b77_711                                             1 	(obj:1)
b76_872                                             1 	(obj:1)
b75_882                                             1 	(obj:1)
b74_620                                             1 	(obj:1)
b73_242                                             1 	(obj:1)
b72_130                                             1 	(obj:1)
b71_471                                             1 	(obj:1)
b70_051                                             1 	(obj:1)
b69_583                                             1 	(obj:1)
b68_642                                             1 	(obj:1)
b67_652                                             1 	(obj:1)
b66_333                                             1 	(obj:1)
b65_611                                             1 	(obj:1)
b64_533                                             1 	(obj:1)
b63_272                                             1 	(obj:1)
b62_062                                             1 	(obj:1)
b61_423                                             1 	(obj:1)
b60_150                                             1 	(obj:1)
b59_322                                             1 	(obj:1)
b58_041                                             1 	(obj:1)
b57_001                                             1 	(obj:1)
b56_863                                             1 	(obj:1)
b55_213                                             1 	(obj:1)
b54_111                                             1 	(obj:1)
b53_023                                             1 	(obj:1)
b52_631                                             1 	(obj:1)
b51_282                                             1 	(obj:1)
b50_542                                             1 	(obj:1)
b49_163                                             1 	(obj:1)
b48_410                                             1 	(obj:1)
b47_603                                             1 	(obj:1)
b46_763                                             1 	(obj:1)
b45_340                                             1 	(obj:1)
b44_353                                             1 	(obj:1)
b43_381                                             1 	(obj:1)
b42_511                                             1 	(obj:1)
b41_083                                             1 	(obj:1)
b40_851                                             1 	(obj:1)
b39_573                                             1 	(obj:1)
b38_182                                             1 	(obj:1)
b37_550                                             1 	(obj:1)
b36_143                                             1 	(obj:1)
b35_310                                             1 	(obj:1)
b34_752                                             1 	(obj:1)
b33_263                                             1 	(obj:1)
b32_031                                             1 	(obj:1)
b31_722                                             1 	(obj:1)
b30_500                                             1 	(obj:1)
b29_120                                             1 	(obj:1)
b28_222                                             1 	(obj:1)
b27_431                                             1 	(obj:1)
b26_830                                             1 	(obj:1)
b25_660                                             1 	(obj:1)
b24_441                                             1 	(obj:1)
b23_702                                             1 	(obj:1)
b22_672                                             1 	(obj:1)
b21_803                                             1 	(obj:1)
b20_733                                             1 	(obj:1)
b19_822                                             1 	(obj:1)
b18_561                                             1 	(obj:1)
b17_253                                             1 	(obj:1)
b16_231                                             1 	(obj:1)
b15_743                                             1 	(obj:1)
b14_370                                             1 	(obj:1)
b13_451                                             1 	(obj:1)
b12_480                                             1 	(obj:1)
b11_303                                             1 	(obj:1)
b10_843                                             1 	(obj:1)
b9_772                                              1 	(obj:1)
b8_011                                              1 	(obj:1)
b7_362                                              1 	(obj:1)
b6_780                                              1 	(obj:1)
b5_400                                              1 	(obj:1)
b4_171                                              1 	(obj:1)
b3_073                                              1 	(obj:1)
b2_522                                              1 	(obj:1)
b1_103                                              1 	(obj:1)
b0_463                                              1 	(obj:1)
